; benchmark generated from python API
(set-info :status unknown)
(declare-fun S_0 () Real)
(declare-fun A_0 () Real)
(declare-fun L_0 () Real)
(declare-fun S_2 () Real)
(declare-fun C () Real)
(declare-fun S_1 () Real)
(declare-fun L0 () Real)
(declare-fun S_4 () Real)
(declare-fun L_1 () Real)
(declare-fun A_3 () Real)
(declare-fun S_3 () Real)
(declare-fun B () Real)
(declare-fun A_4 () Real)
(declare-fun L_4 () Real)
(declare-fun L_2 () Real)
(declare-fun L_3 () Real)
(declare-fun A_1 () Real)
(declare-fun A_2 () Real)
(assert
 (let (($x37 (>= L0 0.0)))
 (let (($x723 (>= C 5.0)))
 (let (($x1624 (not (= L_2 L_4))))
 (let ((?x260 (* (- 1.0) C)))
 (let ((?x237 (* (- 1.0) L_4)))
 (let ((?x530 (* (- 1.0) B)))
 (let ((?x6671 (+ ?x530 ?x237 A_4 ?x260)))
 (let (($x6701 (<= (+ A_3 (* (- 1.0) L_0)) ?x6671)))
 (let (($x2007 (= L_4 L_1)))
 (let (($x1723 (not (= L_1 L_3))))
 (let (($x919 (<= L_1 L_0)))
 (let (($x824 (not $x919)))
 (let (($x10180 (or $x824 $x1723 $x2007 (<= S_0 (+ ?x530 ?x237 A_4 (* (- 4.0) C))) $x6701)))
 (let (($x7028 (<= (+ A_1 (* (- 1.0) L_0) L_4 (* (- 1.0) A_4) (* 3.0 C)) 0.0)))
 (let (($x2744 (= L_4 L_0)))
 (let (($x2525 (not (= L_0 L_3))))
 (let (($x6744 (<= (+ A_2 (* (- 1.0) L_0) L_4 (* (- 1.0) A_4) (* 2.0 C)) 0.0)))
 (let (($x10159 (or $x824 $x1723 $x2007 $x6701 (<= S_1 (+ ?x530 ?x237 A_4 (* (- 3.0) C))))))
 (let (($x10393 (or $x2525 $x2744 $x6701 (not (<= 0.0 (+ C L_0 (* (- 1.0) A_3) S_2))))))
 (let (($x7014 (<= 0.0 (+ C L_0 (* (- 1.0) A_3) S_2))))
 (let (($x7345 (or $x824 $x1723 $x2007 (<= S_2 (+ ?x530 ?x237 A_4 (* (- 2.0) C))) $x7014)))
 (let (($x10223 (or (not $x6701) (= (+ A_4 ?x237 ?x530) (+ A_3 (* (- 1.0) L_0) C)))))
 (let (($x1143 (not (= L_0 L_1))))
 (let (($x1090 (= L_2 L_0)))
 (let (($x382 (or $x1090 $x1143 (<= S_4 (+ A_2 (* (- 1.0) L_2) ?x530 (* 2.0 C))))))
 (let (($x7097 (or $x1090 $x1143 $x1624 (<= (+ A_4 (* (- 1.0) A_2) (* (- 2.0) C)) 0.0))))
 (let (($x6890 (or $x1090 $x1143 (<= (+ A_1 (* (- 1.0) L_0) L_2 (* (- 1.0) A_2) C) 0.0))))
 (let (($x1229 (= L_4 L_2)))
 (let (($x10026 (or $x1090 $x1143 $x1229 (= (+ A_4 ?x237) (+ A_2 (* (- 1.0) L_2) (* 2.0 C))))))
 (let (($x64 (= L_2 L_1)))
 (let ((?x474 (* (- 1.0) L_0)))
 (let ((?x734 (+ A_0 ?x474)))
 (let ((?x1086 (* (- 2.0) C)))
 (let ((?x313 (* (- 1.0) L_2)))
 (let ((?x4820 (+ ?x530 ?x313 A_2 ?x1086)))
 (let (($x7200 (or $x2007 (= (+ A_4 ?x237 ?x530) (+ A_3 (* (- 1.0) L_1) C)) (not (<= A_3 (+ A_1 ?x530 (* 2.0 C)))))))
 (let (($x6541 (<= A_3 (+ A_1 ?x530 (* 2.0 C)))))
 (let ((?x235 (+ A_4 ?x237)))
 (let (($x6508 (= ?x235 (+ A_1 (* (- 1.0) L_1) (* 3.0 C)))))
 (let (($x54 (= L_1 L_0)))
 (let (($x9915 (or $x919 $x1624 (<= (+ A_4 ?x313 (* (- 1.0) A_1) L_1 (* (- 3.0) C)) 0.0))))
 (let (($x74 (= L_3 L_2)))
 (let (($x117 (>= S_3 S_2)))
 (let (($x36 (>= L_0 L0)))
 (let (($x111 (>= S_1 S_0)))
 (let (($x114 (>= S_2 S_1)))
 (let (($x123 (>= A_2 A_1)))
 (let (($x124 (>= A_3 A_2)))
 (and (<= (+ A_3 (* (- 1.0) L_3)) S_4) (<= ?x734 S_3) (not (<= (+ A_1 (* (- 1.0) L_1)) S_3)) $x124 $x123 $x114 $x111 $x36 $x117 (or (= L_4 L_3) (<= S_4 (+ A_4 ?x237 ?x530))) $x74 (or (not (<= L_4 L_2)) $x1229) (or (>= S_1 (+ ?x530 ?x474 A_1 ?x260)) $x1143) (>= S_2 (+ A_1 (* (- 1.0) L_1) ?x530)) (or $x64 (<= S_2 (+ A_2 ?x313 ?x530))) (>= S_0 (+ ?x530 (* (- 1.0) L_1) A_1 ?x1086)) (>= S_1 (+ ?x530 (* (- 1.0) L_1) A_1 ?x260)) (<= (+ ?x530 (* (- 1.0) L_1) A_1 ?x260) ?x734) (>= S_3 (+ A_1 (* (- 1.0) L_1) ?x530 C)) (or $x54 $x824) (or (not (<= L_2 L_0)) $x1090) (or $x64 $x919 (= L_2 (+ A_2 (* (- 1.0) A_1) L_1 ?x260))) (or $x54 (<= S_1 (+ A_1 (* (- 1.0) L_1) ?x530))) (or $x54 (<= S_2 (+ A_1 (* (- 1.0) L_1) ?x530 C))) (or $x54 $x1723 (<= (+ A_2 (* (- 1.0) A_1) ?x260) 0.0)) (or $x54 (<= S_0 (+ ?x530 (* (- 1.0) L_1) A_1 ?x260))) (or $x64 $x919 $x1229 $x6508) (or $x64 (not (<= (+ A_2 (* (- 1.0) A_1) ?x260) 0.0))) $x9915 (or $x54 (<= S_3 (+ A_1 (* (- 1.0) L_1) ?x530 (* 2.0 C)))) (or $x54 (<= S_4 (+ A_1 (* (- 1.0) L_1) ?x530 (* 3.0 C)))) (or $x919 $x1723 $x2007 $x6508 $x6541) (>= S_3 (+ A_2 ?x313 ?x530)) (<= S_4 (+ A_4 ?x313)) $x7200 (>= S_0 (+ ?x530 ?x313 A_2 (* (- 3.0) C))) (>= S_2 (+ ?x530 ?x313 A_2 ?x260)) (>= S_1 ?x4820) (<= ?x4820 ?x734) (or $x64 (<= S_1 (+ ?x530 ?x313 A_2 ?x260))) (or $x64 (<= S_0 ?x4820)) $x10026 $x6890 $x7097 $x382 $x10223 (>= S_0 (+ ?x530 ?x237 A_4 (* (- 5.0) C))) (<= (+ ?x530 ?x237 A_4 (* (- 4.0) C)) ?x734) (or (= L_4 L_3) (<= S_3 ?x6671)) (>= S_2 (+ ?x530 ?x237 A_4 (* (- 3.0) C))) $x7345 $x10393 $x10159 (or $x824 $x1723 $x2007 $x6744) (or $x2525 $x2744 $x6701 $x7028) $x10180 (<= (+ (* 2.0 C) S_0 (* (- 1.0) S_3)) 0.0) (<= (+ C S_1 (* (- 1.0) S_3)) 0.0) (<= (+ ?x1086 (* (- 1.0) S_1) S_2) 0.0) (<= (+ ?x1086 L_0 (* (- 1.0) A_0) S_2) 0.0) (<= (+ (* (- 3.0) C) (* (- 1.0) S_0) S_2) 0.0) (>= S_3 (+ ?x530 ?x237 A_4 ?x1086)) (>= S_1 (+ ?x530 ?x237 A_4 (* (- 4.0) C))) (<= (+ (* (- 3.0) C) L_0 (* (- 1.0) A_0) S_3) 0.0) (<= (+ (* (- 4.0) C) (* (- 1.0) S_0) S_3) 0.0) (<= (+ ?x1086 S_4 (* (- 1.0) S_3)) 0.0) (<= (+ (* (- 3.0) C) (* (- 1.0) S_1) S_3) 0.0) (or $x1624 (<= (+ A_4 (* (- 1.0) A_3) ?x260) B)) (<= (+ ?x1086 (* (- 1.0) S_2) S_3) 0.0) (<= (+ (* (- 4.0) C) (* (- 1.0) S_1) S_4) 0.0) (<= S_4 (+ A_3 (* (- 1.0) L_1) C)) (<= (+ (* (- 4.0) C) L_0 (* (- 1.0) A_0) S_4) 0.0) (<= (+ (* (- 3.0) C) (* (- 1.0) S_2) S_4) 0.0) (<= (+ (* (- 5.0) C) (* (- 1.0) S_0) S_4) 0.0) $x723 $x37 (<= (+ ?x1086 S_1 (* (- 1.0) S_0)) 0.0) (<= (+ ?x260 L_0 (* (- 1.0) A_0) S_1) 0.0) (<= (+ C S_0 (* (- 1.0) S_2)) 0.0) (<= (+ L_0 (* (- 1.0) A_0) S_0) 0.0)))))))))))))))))))))))))))))))))))))))))))))))))))
(check-sat)
